
Gurobi 10.0.2 (win64) logging started Fri Jun 21 03:40:19 2024

Set parameter LogFile to value "log/log_difficulty1_MNL_DESKTOP-S7OVCUR_9_9.txt"
Gurobi Optimizer version 10.0.2 build v10.0.2rc0 (win64)

CPU model: Intel(R) Core(TM) i7-10510U CPU @ 1.80GHz, instruction set [SSE2|AVX|AVX2]
Thread count: 4 physical cores, 8 logical processors, using up to 8 threads

Optimize a model with 2020 rows, 676 columns and 4612 nonzeros
Model fingerprint: 0x1c7ffcf1
Variable types: 364 continuous, 312 integer (312 binary)
Coefficient statistics:
  Matrix range     [2e-03, 5e+02]
  Objective range  [1e+02, 6e+02]
  Bounds range     [1e+00, 1e+00]
  RHS range        [1e+00, 1e+00]
Found heuristic solution: objective -0.0000000
Presolve removed 224 rows and 104 columns
Presolve time: 0.05s
Presolved: 1796 rows, 572 columns, 4231 nonzeros
Found heuristic solution: objective 2174.5970860
Variable types: 308 continuous, 264 integer (264 binary)

Root relaxation: objective 1.579154e+04, 425 iterations, 0.00 seconds (0.00 work units)

    Nodes    |    Current Node    |     Objective Bounds      |     Work
 Expl Unexpl |  Obj  Depth IntInf | Incumbent    BestBd   Gap | It/Node Time

     0     0 15791.5358    0  158 2174.59709 15791.5358   626%     -    0s
H    0     0                    8210.2796634 15791.5358  92.3%     -    0s
H    0     0                    9062.6857327 15791.5358  74.2%     -    0s
H    0     0                    12668.037949 15791.5358  24.7%     -    0s
H    0     0                    13057.140167 14997.2280  14.9%     -    0s
     0     0 14997.2280    0  182 13057.1402 14997.2280  14.9%     -    0s
H    0     0                    13316.494120 14989.7078  12.6%     -    0s
     0     0 14989.7078    0  187 13316.4941 14989.7078  12.6%     -    0s
     0     0 14989.6680    0  183 13316.4941 14989.6680  12.6%     -    0s
H    0     0                    13431.826309 14989.6680  11.6%     -    0s
H    0     0                    13595.670415 14657.8550  7.81%     -    0s
     0     0 14657.8550    0  185 13595.6704 14657.8550  7.81%     -    0s
H    0     0                    13817.604794 14657.8550  6.08%     -    0s
H    0     0                    13857.790719 14657.8550  5.77%     -    0s
H    0     0                    13916.013015 14616.6257  5.03%     -    0s
     0     0 14616.6257    0  183 13916.0130 14616.6257  5.03%     -    0s
     0     0 14615.4543    0  185 13916.0130 14615.4543  5.03%     -    0s
     0     0 14615.4543    0  186 13916.0130 14615.4543  5.03%     -    0s
H    0     0                    14155.451582 14465.1173  2.19%     -    0s
     0     0 14465.1173    0  188 14155.4516 14465.1173  2.19%     -    0s
     0     0 14451.1879    0  186 14155.4516 14451.1879  2.09%     -    0s
     0     0 14440.8330    0  188 14155.4516 14440.8330  2.02%     -    0s
H    0     0                    14175.279515 14439.7212  1.87%     -    0s
H    0     0                    14183.900947 14439.7212  1.80%     -    0s
     0     0 14439.7212    0  186 14183.9009 14439.7212  1.80%     -    0s
     0     0 14439.5409    0  186 14183.9009 14439.5409  1.80%     -    0s
     0     0 14410.7065    0  187 14183.9009 14410.7065  1.60%     -    0s
     0     0 14407.7454    0  190 14183.9009 14407.7454  1.58%     -    0s
     0     0 14407.4331    0  190 14183.9009 14407.4331  1.58%     -    0s
     0     0 14381.0429    0  184 14183.9009 14381.0429  1.39%     -    0s
     0     0 14378.1318    0  187 14183.9009 14378.1318  1.37%     -    0s
     0     0 14377.8656    0  186 14183.9009 14377.8656  1.37%     -    0s
     0     0 14374.3289    0  190 14183.9009 14374.3289  1.34%     -    0s
H    0     0                    14210.220996 14374.3289  1.15%     -    0s
H    0     0                    14215.836786 14374.3289  1.11%     -    0s
     0     0 14371.8419    0  190 14215.8368 14371.8419  1.10%     -    0s
     0     0 14371.7012    0  190 14215.8368 14371.7012  1.10%     -    0s
H    0     0                    14220.546241 14371.7012  1.06%     -    0s
H    0     0                    14229.167672 14371.7012  1.00%     -    0s
     0     0 14369.4835    0  169 14229.1677 14369.4835  0.99%     -    0s
H    0     0                    14243.753857 14368.4178  0.88%     -    0s
     0     0 14368.4178    0  168 14243.7539 14368.4178  0.88%     -    0s
     0     0 14368.4017    0  168 14243.7539 14368.4017  0.88%     -    0s
     0     0 14367.5639    0  168 14243.7539 14367.5639  0.87%     -    0s
     0     0 14367.5301    0  187 14243.7539 14367.5301  0.87%     -    0s
     0     0 14367.3584    0  188 14243.7539 14367.3584  0.87%     -    0s
     0     0 14367.3584    0  183 14243.7539 14367.3584  0.87%     -    0s
H    0     0                    14306.961553 14367.3584  0.42%     -    0s
     0     2 14367.3584    0  181 14306.9616 14367.3584  0.42%     -    0s

Cutting planes:
  Gomory: 21
  Implied bound: 17
  MIR: 59
  Flow cover: 82
  RLT: 53
  Relax-and-lift: 6
  BQP: 8

Explored 20 nodes (3147 simplex iterations) in 0.97 seconds (0.34 work units)
Thread count was 8 (of 8 available processors)

Solution count 10: 14307 14243.8 14229.2 ... 13916

Optimal solution found (tolerance 1.00e-04)
Best objective 1.430696155302e+04, best bound 1.430829357388e+04, gap 0.0093%
